! XTB GOAT

%pal
  nprocs 16
end


* xyz 0 1
C      0.000000    0.000000    0.000000
C      1.530000    0.000000    0.000000
C      2.880000    0.000000    0.000000
Cl     4.410000    0.000000    0.000000
Cl    -1.470000    0.000000    0.000000
H      0.180000    0.930000    0.000000
H      0.180000   -0.930000    0.000000
H      1.710000    0.930000    0.000000
H      1.710000   -0.930000    0.000000
H      2.690000    0.930000    0.000000
H      2.690000   -0.930000    0.000000
*
